
  22   10
  10   10   10   10   10   10   10   10   10   10

   0   0   0   0   0   0   0   0   0   0   0   3 2 10 13 
   8  10  10  10  10  10  10  10  10  10  10   1 3 
   1  10  10  10  10  10  10  10  10  10  10   1 4 
   6  10  10  10  10  10  10  10  10  10  10   2 21 5 
   7  10  10  10  10  10  10  10  10  10  10   1 6 
   9  10  10  10  10  10  10  10  10  10  10   2 16 7 
   6  10  10  10  10  10  10  10  10  10  10   1 8 
   3  10  10  10  10  10  10  10  10  10  10   1 9 
   3  10  10  10  10  10  10  10  10  10  10   1 11 
  10  10  10  10  10  10  10  10  10  10  10   1 11 
   5  10  10  10  10  10  10  10  10  10  10   1 12 
   2  10  10  10  10  10  10  10  10  10  10   2 18 14 
   3  10  10  10  10  10  10  10  10  10  10   1 14 
   8  10  10  10  10  10  10  10  10  10  10   1 15 
   6  10  10  10  10  10  10  10  10  10  10   1 17 
   2  10  10  10  10  10  10  10  10  10  10   1 18 
   8  10  10  10  10  10  10  10  10  10  10   1 19 
   6  10  10  10  10  10  10  10  10  10  10   1 20 
   1  10  10  10  10  10  10  10  10  10  10   1 22
   8  10  10  10  10  10  10  10  10  10  10   1 22
   8  10  10  10  10  10  10  10  10  10  10   1 22
   0   0   0   0   0   0   0   0   0   0   0   0 
